(set-info :source |printed by MathSAT|)
(declare-fun |.x{1123}| () Int)
(declare-fun |.x{1171}| () Int)
(declare-fun |.x{1124}| () (Array Int Int))
(declare-fun |.x{1172}| () (Array Int Int))
(declare-fun |.x{1125}| () (Array Int Int))
(declare-fun |.x{1173}| () (Array Int Int))
(declare-fun |.x{1126}| () (Array Int (Array Int Int)))
(declare-fun |.x{1174}| () (Array Int (Array Int Int)))
(declare-fun |.x{1127}| () Int)
(declare-fun |.x{1175}| () Int)
(declare-fun |.x{1128}| () Int)
(declare-fun |.x{1176}| () Int)
(declare-fun |.x{1129}| () (Array Int Int))
(declare-fun |.x{1177}| () (Array Int Int))
(declare-fun |.x{1130}| () (Array Int Int))
(declare-fun |.x{1178}| () (Array Int Int))
(declare-fun |.x{1131}| () Int)
(declare-fun |.x{1179}| () Int)
(declare-fun |.x{1132}| () Int)
(declare-fun |.x{1180}| () Int)
(declare-fun |.x{1133}| () Int)
(declare-fun |.x{1181}| () Int)
(declare-fun |.x{1134}| () Int)
(declare-fun |.x{1182}| () Int)
(declare-fun |.x{1135}| () Int)
(declare-fun |.x{1183}| () Int)
(declare-fun |.x{1136}| () Int)
(declare-fun |.x{1184}| () Int)
(declare-fun |.x{1137}| () Int)
(declare-fun |.x{1185}| () Int)
(declare-fun |.x{1138}| () Int)
(declare-fun |.x{1186}| () Int)
(declare-fun |.x{1139}| () Int)
(declare-fun |.x{1187}| () Int)
(declare-fun |.x{1140}| () Int)
(declare-fun |.x{1188}| () Int)
(declare-fun |.x{1141}| () Int)
(declare-fun |.x{1189}| () Int)
(declare-fun |.x{1142}| () Int)
(declare-fun |.x{1190}| () Int)
(declare-fun |.x{1143}| () Int)
(declare-fun |.x{1191}| () Int)
(declare-fun |.x{1144}| () Int)
(declare-fun |.x{1192}| () Int)
(declare-fun |.x{1145}| () Int)
(declare-fun |.x{1193}| () Int)
(declare-fun |.x{1170}| () Bool)
(declare-fun |.x{1146}| () Bool)
(declare-fun |.loc{5}| () Bool)
(declare-fun |.loc{9}| () Bool)
(declare-fun |.loc{6}| () Bool)
(declare-fun |.loc{10}| () Bool)
(declare-fun |.loc{7}| () Bool)
(declare-fun |.loc{11}| () Bool)
(declare-fun |.loc{8}| () Bool)
(declare-fun |.loc{12}| () Bool)
(declare-fun |.x{460}| () Int)
(declare-fun |.x{95}| () (Array Int Int))
(define-fun .def_58 () Bool (! |.loc{6}| :next |.loc{10}|))
(define-fun .def_199 () Bool (not .def_58))
(define-fun .def_56 () Bool (! |.loc{5}| :next |.loc{9}|))
(define-fun .def_485 () Bool (and .def_56 .def_199))
(define-fun .def_60 () Bool (! |.loc{7}| :next |.loc{11}|))
(define-fun .def_113 () Bool (not .def_60))
(define-fun .def_486 () Bool (and .def_113 .def_485))
(define-fun .def_62 () Bool (! |.loc{8}| :next |.loc{12}|))
(define-fun .def_108 () Bool (not .def_62))
(define-fun .def_487 () Bool (and .def_108 .def_486))
(define-fun .def_54 () Bool (! |.x{1170}| :next |.x{1146}|))
(define-fun .def_480 () Bool (not .def_54))
(define-fun .def_26 () Int (! |.x{1132}| :next |.x{1180}|))
(define-fun .def_24 () Int (! |.x{1131}| :next |.x{1179}|))
(define-fun .def_479 () Bool (= .def_24 .def_26))
(define-fun .def_481 () Bool (and .def_479 .def_480))
(define-fun .def_18 () Int (! |.x{1128}| :next |.x{1176}|))
(define-fun .def_16 () Int (! |.x{1127}| :next |.x{1175}|))
(define-fun .def_478 () Bool (= .def_16 .def_18))
(define-fun .def_482 () Bool (and .def_478 .def_481))
(define-fun .def_22 () (Array Int Int) (! |.x{1130}| :next |.x{1178}|))
(define-fun .def_20 () (Array Int Int) (! |.x{1129}| :next |.x{1177}|))
(define-fun .def_477 () Bool (= .def_20 .def_22))
(define-fun .def_483 () Bool (and .def_477 .def_482))
(define-fun .def_12 () (Array Int Int) (! |.x{1125}| :next |.x{1173}|))
(define-fun .def_10 () (Array Int Int) (! |.x{1124}| :next |.x{1172}|))
(define-fun .def_476 () Bool (= .def_10 .def_12))
(define-fun .def_484 () Bool (and .def_476 .def_483))
(define-fun .def_488 () Bool (! (and .def_484 .def_487) :init true))
(define-fun .def_14 () (Array Int (Array Int Int)) (! |.x{1126}| :next |.x{1174}|))
(define-fun .def_473 () Bool (= .def_14 |.x{1174}|))
(define-fun .def_471 () Bool (= .def_12 |.x{1173}|))
(define-fun .def_8 () Int (! |.x{1123}| :next |.x{1171}|))
(define-fun .def_469 () Bool (= .def_8 |.x{1171}|))
(define-fun .def_467 () Bool (= .def_26 |.x{1180}|))
(define-fun .def_465 () Bool (= .def_18 |.x{1176}|))
(define-fun .def_464 () Bool (= .def_22 |.x{1178}|))
(define-fun .def_466 () Bool (and .def_464 .def_465))
(define-fun .def_468 () Bool (and .def_466 .def_467))
(define-fun .def_470 () Bool (and .def_468 .def_469))
(define-fun .def_472 () Bool (and .def_470 .def_471))
(define-fun .def_474 () Bool (and .def_472 .def_473))
(define-fun .def_48 () Int (! |.x{1143}| :next |.x{1191}|))
(define-fun .def_459 () Bool (= .def_48 |.x{1191}|))
(define-fun .def_28 () Int (! |.x{1133}| :next |.x{1181}|))
(define-fun .def_82 () Bool (= .def_28 |.x{1181}|))
(define-fun .def_422 () Bool (and |.x{1146}| .def_82))
(define-fun .def_38 () Int (! |.x{1138}| :next |.x{1186}|))
(define-fun .def_92 () Bool (= .def_38 |.x{1186}|))
(define-fun .def_423 () Bool (and .def_92 .def_422))
(define-fun .def_40 () Int (! |.x{1139}| :next |.x{1187}|))
(define-fun .def_94 () Bool (= .def_40 |.x{1187}|))
(define-fun .def_424 () Bool (and .def_94 .def_423))
(define-fun .def_44 () Int (! |.x{1141}| :next |.x{1189}|))
(define-fun .def_98 () Bool (= .def_44 |.x{1189}|))
(define-fun .def_425 () Bool (and .def_98 .def_424))
(define-fun .def_426 () Bool (and .def_56 .def_425))
(define-fun .def_427 () Bool (and .def_58 .def_426))
(define-fun .def_428 () Bool (and .def_60 .def_427))
(define-fun .def_429 () Bool (and .def_108 .def_428))
(define-fun .def_119 () Bool (= .def_10 |.x{1172}|))
(define-fun .def_430 () Bool (and .def_119 .def_429))
(define-fun .def_431 () Bool (and .def_119 .def_430))
(define-fun .def_418 () Bool (= |.x{1186}| |.x{1189}|))
(define-fun .def_419 () Bool (or |.x{1146}| .def_418))
(define-fun .def_410 () (Array Int Int) (store .def_10 .def_40 0))
(define-fun .def_411 () Bool (= |.x{1172}| .def_410))
(define-fun .def_409 () Bool (= |.x{1189}| 0))
(define-fun .def_412 () Bool (and .def_409 .def_411))
(define-fun .def_413 () Bool (or .def_54 .def_412))
(define-fun .def_414 () Bool (and .def_62 .def_413))
(define-fun .def_415 () Bool (and .def_113 .def_414))
(define-fun .def_416 () Bool (and .def_199 .def_415))
(define-fun .def_244 () Bool (not .def_56))
(define-fun .def_417 () Bool (and .def_244 .def_416))
(define-fun .def_420 () Bool (and .def_417 .def_419))
(define-fun .def_124 () Bool (= .def_54 |.x{1146}|))
(define-fun .def_421 () Bool (and .def_124 .def_420))
(define-fun .def_432 () Bool (or .def_421 .def_431))
(define-fun .def_433 () Bool (and |.loc{12}| .def_432))
(define-fun .def_434 () Bool (and |.loc{12}| .def_433))
(define-fun .def_220 () Bool (not |.loc{10}|))
(define-fun .def_435 () Bool (and .def_220 .def_434))
(define-fun .def_117 () Bool (not |.loc{11}|))
(define-fun .def_436 () Bool (and .def_117 .def_435))
(define-fun .def_30 () Int (! |.x{1134}| :next |.x{1182}|))
(define-fun .def_225 () Bool (= .def_30 0))
(define-fun .def_407 () Bool (or .def_54 .def_225))
(define-fun .def_371 () Bool (and .def_82 .def_92))
(define-fun .def_372 () Bool (and .def_94 .def_371))
(define-fun .def_373 () Bool (and .def_98 .def_372))
(define-fun .def_398 () Bool (and .def_58 .def_373))
(define-fun .def_399 () Bool (and .def_60 .def_398))
(define-fun .def_400 () Bool (and .def_108 .def_399))
(define-fun .def_401 () Bool (and |.loc{10}| .def_400))
(define-fun .def_402 () Bool (and |.loc{11}| .def_401))
(define-fun .def_115 () Bool (not |.loc{12}|))
(define-fun .def_403 () Bool (and .def_115 .def_402))
(define-fun .def_404 () Bool (and .def_244 .def_403))
(define-fun .def_405 () Bool (and .def_119 .def_404))
(define-fun .def_406 () Bool (and .def_124 .def_405))
(define-fun .def_408 () Bool (and .def_406 .def_407))
(define-fun .def_437 () Bool (or .def_408 .def_436))
(define-fun .def_84 () Bool (= .def_30 |.x{1182}|))
(define-fun .def_438 () Bool (and .def_84 .def_437))
(define-fun .def_50 () Int (! |.x{1144}| :next |.x{1192}|))
(define-fun .def_106 () Bool (= .def_50 |.x{1192}|))
(define-fun .def_439 () Bool (and .def_106 .def_438))
(define-fun .def_52 () Int (! |.x{1145}| :next |.x{1193}|))
(define-fun .def_110 () Bool (= .def_52 |.x{1193}|))
(define-fun .def_440 () Bool (and .def_110 .def_439))
(define-fun .def_441 () Bool (and |.loc{9}| .def_440))
(define-fun .def_36 () Int (! |.x{1137}| :next |.x{1185}|))
(define-fun .def_312 () Bool (<= 100000 .def_36))
(define-fun .def_391 () Bool (not .def_312))
(define-fun .def_42 () Int (! |.x{1140}| :next |.x{1188}|))
(define-fun .def_388 () Bool (<= .def_42 |.x{1193}|))
(define-fun .def_389 () Int (ite .def_388 1 0))
(define-fun .def_390 () Bool (= |.x{1192}| .def_389))
(define-fun .def_392 () Bool (and .def_390 .def_391))
(define-fun .def_384 () Int (* 4 .def_36))
(define-fun .def_385 () Int (+ .def_28 .def_384))
(define-fun .def_75 () (Array Int Int) (select .def_14 .def_40))
(define-fun .def_386 () Int (select .def_75 .def_385))
(define-fun .def_387 () Bool (= |.x{1193}| .def_386))
(define-fun .def_393 () Bool (and .def_387 .def_392))
(define-fun .def_383 () Bool (= |.x{1182}| |.x{1192}|))
(define-fun .def_394 () Bool (and .def_383 .def_393))
(define-fun .def_395 () Bool (or .def_54 .def_394))
(define-fun .def_100 () Bool (not |.loc{9}|))
(define-fun .def_374 () Bool (and .def_100 .def_373))
(define-fun .def_375 () Bool (and .def_56 .def_374))
(define-fun .def_376 () Bool (and .def_60 .def_375))
(define-fun .def_377 () Bool (and .def_108 .def_376))
(define-fun .def_378 () Bool (and |.loc{10}| .def_377))
(define-fun .def_379 () Bool (and |.loc{11}| .def_378))
(define-fun .def_380 () Bool (and .def_199 .def_379))
(define-fun .def_381 () Bool (and .def_115 .def_380))
(define-fun .def_382 () Bool (and .def_119 .def_381))
(define-fun .def_396 () Bool (and .def_382 .def_395))
(define-fun .def_397 () Bool (and .def_124 .def_396))
(define-fun .def_442 () Bool (or .def_397 .def_441))
(define-fun .def_90 () Bool (= .def_36 |.x{1185}|))
(define-fun .def_32 () Int (! |.x{1135}| :next |.x{1183}|))
(define-fun .def_86 () Bool (= .def_32 |.x{1183}|))
(define-fun .def_370 () Bool (and .def_86 .def_90))
(define-fun .def_443 () Bool (and .def_370 .def_442))
(define-fun .def_354 () Int (* (- 1) |.x{1185}|))
(define-fun .def_355 () Int (+ .def_36 .def_354))
(define-fun .def_356 () Bool (= .def_355 (- 1)))
(define-fun .def_357 () Bool (or |.x{1146}| .def_356))
(define-fun .def_254 () Bool (and .def_82 .def_84))
(define-fun .def_351 () Bool (and .def_92 .def_254))
(define-fun .def_352 () Bool (and .def_94 .def_351))
(define-fun .def_353 () Bool (and .def_98 .def_352))
(define-fun .def_358 () Bool (and .def_353 .def_357))
(define-fun .def_359 () Bool (and .def_106 .def_358))
(define-fun .def_360 () Bool (and .def_108 .def_359))
(define-fun .def_361 () Bool (and |.loc{9}| .def_360))
(define-fun .def_362 () Bool (and |.loc{11}| .def_361))
(define-fun .def_363 () Bool (and .def_113 .def_362))
(define-fun .def_364 () Bool (and .def_199 .def_363))
(define-fun .def_365 () Bool (and .def_115 .def_364))
(define-fun .def_366 () Bool (and .def_220 .def_365))
(define-fun .def_367 () Bool (and .def_244 .def_366))
(define-fun .def_368 () Bool (and .def_119 .def_367))
(define-fun .def_369 () Bool (and .def_124 .def_368))
(define-fun .def_444 () Bool (or .def_369 .def_443))
(define-fun .def_333 () Bool (= |.x{1185}| 0))
(define-fun .def_334 () Bool (or .def_54 .def_333))
(define-fun .def_274 () Bool (and .def_86 .def_254))
(define-fun .def_335 () Bool (and .def_274 .def_334))
(define-fun .def_336 () Bool (and .def_92 .def_335))
(define-fun .def_337 () Bool (and .def_94 .def_336))
(define-fun .def_338 () Bool (and .def_98 .def_337))
(define-fun .def_339 () Bool (and .def_60 .def_338))
(define-fun .def_340 () Bool (and .def_106 .def_339))
(define-fun .def_341 () Bool (and .def_108 .def_340))
(define-fun .def_342 () Bool (and .def_110 .def_341))
(define-fun .def_343 () Bool (and |.loc{9}| .def_342))
(define-fun .def_344 () Bool (and |.loc{11}| .def_343))
(define-fun .def_345 () Bool (and .def_199 .def_344))
(define-fun .def_346 () Bool (and .def_115 .def_345))
(define-fun .def_347 () Bool (and .def_220 .def_346))
(define-fun .def_348 () Bool (and .def_244 .def_347))
(define-fun .def_349 () Bool (and .def_119 .def_348))
(define-fun .def_350 () Bool (and .def_124 .def_349))
(define-fun .def_445 () Bool (or .def_350 .def_444))
(define-fun .def_204 () Bool (and .def_54 .def_82))
(define-fun .def_205 () Bool (and .def_84 .def_204))
(define-fun .def_206 () Bool (and .def_86 .def_205))
(define-fun .def_292 () Bool (and .def_90 .def_206))
(define-fun .def_293 () Bool (and .def_92 .def_292))
(define-fun .def_294 () Bool (and .def_94 .def_293))
(define-fun .def_295 () Bool (and .def_98 .def_294))
(define-fun .def_296 () Bool (and .def_100 .def_295))
(define-fun .def_297 () Bool (and .def_56 .def_296))
(define-fun .def_323 () Bool (and .def_60 .def_297))
(define-fun .def_324 () Bool (and .def_106 .def_323))
(define-fun .def_325 () Bool (and .def_108 .def_324))
(define-fun .def_326 () Bool (and .def_110 .def_325))
(define-fun .def_327 () Bool (and |.loc{12}| .def_326))
(define-fun .def_328 () Bool (and .def_199 .def_327))
(define-fun .def_329 () Bool (and .def_220 .def_328))
(define-fun .def_330 () Bool (and .def_117 .def_329))
(define-fun .def_331 () Bool (and .def_119 .def_330))
(define-fun .def_332 () Bool (and .def_124 .def_331))
(define-fun .def_446 () Bool (or .def_332 .def_445))
(define-fun .def_313 () Bool (or .def_54 .def_312))
(define-fun .def_275 () Bool (and .def_90 .def_274))
(define-fun .def_276 () Bool (and .def_92 .def_275))
(define-fun .def_277 () Bool (and .def_94 .def_276))
(define-fun .def_278 () Bool (and .def_98 .def_277))
(define-fun .def_308 () Bool (and .def_100 .def_278))
(define-fun .def_309 () Bool (and .def_56 .def_308))
(define-fun .def_310 () Bool (and .def_60 .def_309))
(define-fun .def_311 () Bool (and .def_106 .def_310))
(define-fun .def_314 () Bool (and .def_311 .def_313))
(define-fun .def_315 () Bool (and .def_108 .def_314))
(define-fun .def_316 () Bool (and .def_110 .def_315))
(define-fun .def_317 () Bool (and |.loc{12}| .def_316))
(define-fun .def_318 () Bool (and .def_199 .def_317))
(define-fun .def_319 () Bool (and .def_220 .def_318))
(define-fun .def_320 () Bool (and .def_117 .def_319))
(define-fun .def_321 () Bool (and .def_119 .def_320))
(define-fun .def_322 () Bool (and .def_124 .def_321))
(define-fun .def_447 () Bool (or .def_322 .def_446))
(define-fun .def_298 () Bool (and .def_58 .def_297))
(define-fun .def_299 () Bool (and .def_106 .def_298))
(define-fun .def_300 () Bool (and .def_110 .def_299))
(define-fun .def_301 () Bool (and .def_108 .def_300))
(define-fun .def_302 () Bool (and |.loc{11}| .def_301))
(define-fun .def_303 () Bool (and .def_113 .def_302))
(define-fun .def_304 () Bool (and .def_115 .def_303))
(define-fun .def_305 () Bool (and .def_220 .def_304))
(define-fun .def_306 () Bool (and .def_119 .def_305))
(define-fun .def_307 () Bool (and .def_124 .def_306))
(define-fun .def_448 () Bool (or .def_307 .def_447))
(define-fun .def_34 () Int (! |.x{1136}| :next |.x{1184}|))
(define-fun .def_70 () Bool (<= 100000 .def_34))
(define-fun .def_273 () Bool (or .def_54 .def_70))
(define-fun .def_279 () Bool (and .def_273 .def_278))
(define-fun .def_280 () Bool (and .def_100 .def_279))
(define-fun .def_281 () Bool (and .def_56 .def_280))
(define-fun .def_282 () Bool (and .def_58 .def_281))
(define-fun .def_283 () Bool (and .def_106 .def_282))
(define-fun .def_284 () Bool (and .def_108 .def_283))
(define-fun .def_285 () Bool (and .def_110 .def_284))
(define-fun .def_286 () Bool (and |.loc{11}| .def_285))
(define-fun .def_287 () Bool (and .def_113 .def_286))
(define-fun .def_288 () Bool (and .def_115 .def_287))
(define-fun .def_289 () Bool (and .def_220 .def_288))
(define-fun .def_290 () Bool (and .def_119 .def_289))
(define-fun .def_291 () Bool (and .def_124 .def_290))
(define-fun .def_449 () Bool (or .def_291 .def_448))
(define-fun .def_88 () Bool (= .def_34 |.x{1184}|))
(define-fun .def_450 () Bool (and .def_88 .def_449))
(define-fun .def_250 () Int (* (- 1) |.x{1184}|))
(define-fun .def_251 () Int (+ .def_34 .def_250))
(define-fun .def_252 () Bool (= .def_251 (- 1)))
(define-fun .def_253 () Bool (or .def_54 .def_252))
(define-fun .def_255 () Bool (and .def_253 .def_254))
(define-fun .def_256 () Bool (and .def_86 .def_255))
(define-fun .def_257 () Bool (and .def_90 .def_256))
(define-fun .def_258 () Bool (and .def_92 .def_257))
(define-fun .def_259 () Bool (and .def_94 .def_258))
(define-fun .def_260 () Bool (and .def_98 .def_259))
(define-fun .def_261 () Bool (and .def_58 .def_260))
(define-fun .def_262 () Bool (and .def_106 .def_261))
(define-fun .def_263 () Bool (and .def_108 .def_262))
(define-fun .def_264 () Bool (and .def_110 .def_263))
(define-fun .def_265 () Bool (and |.loc{9}| .def_264))
(define-fun .def_266 () Bool (and |.loc{10}| .def_265))
(define-fun .def_267 () Bool (and .def_113 .def_266))
(define-fun .def_268 () Bool (and .def_115 .def_267))
(define-fun .def_269 () Bool (and .def_244 .def_268))
(define-fun .def_270 () Bool (and .def_117 .def_269))
(define-fun .def_271 () Bool (and .def_119 .def_270))
(define-fun .def_272 () Bool (and .def_124 .def_271))
(define-fun .def_451 () Bool (or .def_272 .def_450))
(define-fun .def_226 () Bool (not .def_225))
(define-fun .def_227 () Bool (or .def_54 .def_226))
(define-fun .def_228 () Bool (and .def_82 .def_227))
(define-fun .def_229 () Bool (and .def_84 .def_228))
(define-fun .def_230 () Bool (and .def_86 .def_229))
(define-fun .def_231 () Bool (and .def_88 .def_230))
(define-fun .def_232 () Bool (and .def_90 .def_231))
(define-fun .def_233 () Bool (and .def_92 .def_232))
(define-fun .def_234 () Bool (and .def_94 .def_233))
(define-fun .def_235 () Bool (and .def_98 .def_234))
(define-fun .def_236 () Bool (and .def_100 .def_235))
(define-fun .def_237 () Bool (and .def_58 .def_236))
(define-fun .def_238 () Bool (and .def_60 .def_237))
(define-fun .def_239 () Bool (and .def_106 .def_238))
(define-fun .def_240 () Bool (and .def_108 .def_239))
(define-fun .def_241 () Bool (and .def_110 .def_240))
(define-fun .def_242 () Bool (and .def_115 .def_241))
(define-fun .def_243 () Bool (and .def_220 .def_242))
(define-fun .def_245 () Bool (and .def_243 .def_244))
(define-fun .def_246 () Bool (and .def_117 .def_245))
(define-fun .def_247 () Bool (and .def_119 .def_246))
(define-fun .def_248 () Bool (and .def_124 .def_247))
(define-fun .def_452 () Bool (or .def_248 .def_451))
(define-fun .def_207 () Bool (and .def_88 .def_206))
(define-fun .def_208 () Bool (and .def_90 .def_207))
(define-fun .def_209 () Bool (and .def_92 .def_208))
(define-fun .def_210 () Bool (and .def_94 .def_209))
(define-fun .def_211 () Bool (and .def_98 .def_210))
(define-fun .def_212 () Bool (and .def_100 .def_211))
(define-fun .def_213 () Bool (and .def_56 .def_212))
(define-fun .def_214 () Bool (and .def_58 .def_213))
(define-fun .def_215 () Bool (and .def_60 .def_214))
(define-fun .def_216 () Bool (and .def_106 .def_215))
(define-fun .def_217 () Bool (and .def_108 .def_216))
(define-fun .def_218 () Bool (and .def_110 .def_217))
(define-fun .def_219 () Bool (and .def_115 .def_218))
(define-fun .def_221 () Bool (and .def_219 .def_220))
(define-fun .def_222 () Bool (and .def_117 .def_221))
(define-fun .def_223 () Bool (and .def_119 .def_222))
(define-fun .def_224 () Bool (and .def_124 .def_223))
(define-fun .def_453 () Bool (or .def_224 .def_452))
(define-fun .def_65 () Bool (= .def_16 |.x{1175}|))
(define-fun .def_454 () Bool (and .def_65 .def_453))
(define-fun .def_64 () Bool (= .def_20 |.x{1177}|))
(define-fun .def_455 () Bool (and .def_64 .def_454))
(define-fun .def_67 () Bool (= .def_24 |.x{1179}|))
(define-fun .def_456 () Bool (and .def_67 .def_455))
(define-fun .def_96 () Bool (= .def_42 |.x{1188}|))
(define-fun .def_457 () Bool (and .def_96 .def_456))
(define-fun .def_46 () Int (! |.x{1142}| :next |.x{1190}|))
(define-fun .def_102 () Bool (= .def_46 |.x{1190}|))
(define-fun .def_458 () Bool (and .def_102 .def_457))
(define-fun .def_460 () Bool (and .def_458 .def_459))
(define-fun .def_187 () Bool (= |.x{1179}| 0))
(define-fun .def_186 () Bool (= |.x{1175}| 0))
(define-fun .def_188 () Bool (and .def_186 .def_187))
(define-fun .def_184 () (Array Int Int) (store .def_10 0 0))
(define-fun .def_185 () Bool (= |.x{95}| .def_184))
(define-fun .def_189 () Bool (and .def_185 .def_188))
(define-fun .def_190 () Bool (or .def_54 .def_189))
(define-fun .def_178 () Bool (<= |.x{1171}| |.x{1187}|))
(define-fun .def_179 () Bool (not .def_178))
(define-fun .def_171 () (Array Int Int) (store .def_20 |.x{1187}| 400000))
(define-fun .def_172 () Bool (= |.x{1177}| .def_171))
(define-fun .def_168 () Int (select |.x{95}| |.x{1187}|))
(define-fun .def_169 () Bool (= .def_168 0))
(define-fun .def_173 () Bool (and .def_169 .def_172))
(define-fun .def_166 () Bool (= |.x{1187}| 0))
(define-fun .def_167 () Bool (not .def_166))
(define-fun .def_174 () Bool (and .def_167 .def_173))
(define-fun .def_164 () (Array Int Int) (store |.x{95}| |.x{1187}| 1))
(define-fun .def_165 () Bool (= |.x{1172}| .def_164))
(define-fun .def_175 () Bool (and .def_165 .def_174))
(define-fun .def_161 () Bool (= |.x{1188}| 0))
(define-fun .def_176 () Bool (and .def_161 .def_175))
(define-fun .def_160 () Bool (= |.x{1184}| 0))
(define-fun .def_177 () Bool (and .def_160 .def_176))
(define-fun .def_180 () Bool (and .def_177 .def_179))
(define-fun .def_159 () Bool (= |.x{1181}| 0))
(define-fun .def_181 () Bool (and .def_159 .def_180))
(define-fun .def_182 () Bool (or |.x{1146}| .def_181))
(define-fun .def_183 () Bool (and .def_84 .def_182))
(define-fun .def_191 () Bool (and .def_183 .def_190))
(define-fun .def_192 () Bool (and .def_92 .def_191))
(define-fun .def_193 () Bool (and .def_56 .def_192))
(define-fun .def_194 () Bool (and .def_106 .def_193))
(define-fun .def_195 () Bool (and .def_108 .def_194))
(define-fun .def_196 () Bool (and |.loc{9}| .def_195))
(define-fun .def_197 () Bool (and |.loc{10}| .def_196))
(define-fun .def_198 () Bool (and .def_113 .def_197))
(define-fun .def_200 () Bool (and .def_198 .def_199))
(define-fun .def_201 () Bool (and .def_115 .def_200))
(define-fun .def_202 () Bool (and .def_117 .def_201))
(define-fun .def_203 () Bool (and .def_124 .def_202))
(define-fun .def_461 () Bool (or .def_203 .def_460))
(define-fun .def_131 () Bool (<= .def_42 |.x{460}|))
(define-fun .def_132 () Bool (not .def_131))
(define-fun .def_126 () Int (* 4 |.x{1184}|))
(define-fun .def_127 () Int (+ |.x{1181}| .def_126))
(define-fun .def_128 () (Array Int Int) (select |.x{1174}| |.x{1187}|))
(define-fun .def_129 () Int (select .def_128 .def_127))
(define-fun .def_130 () Bool (= |.x{1188}| .def_129))
(define-fun .def_133 () Bool (and .def_130 .def_132))
(define-fun .def_134 () Bool (or |.x{1146}| .def_133))
(define-fun .def_66 () Bool (and .def_64 .def_65))
(define-fun .def_135 () Bool (and .def_66 .def_134))
(define-fun .def_136 () Bool (and .def_67 .def_135))
(define-fun .def_73 () Int (* 4 .def_34))
(define-fun .def_74 () Int (+ .def_28 .def_73))
(define-fun .def_76 () Int (select .def_75 .def_74))
(define-fun .def_78 () Bool (= .def_76 |.x{460}|))
(define-fun .def_71 () Bool (not .def_70))
(define-fun .def_79 () Bool (and .def_71 .def_78))
(define-fun .def_80 () Bool (or .def_54 .def_79))
(define-fun .def_137 () Bool (and .def_80 .def_136))
(define-fun .def_138 () Bool (and .def_82 .def_137))
(define-fun .def_139 () Bool (and .def_84 .def_138))
(define-fun .def_140 () Bool (and .def_86 .def_139))
(define-fun .def_141 () Bool (and .def_88 .def_140))
(define-fun .def_142 () Bool (and .def_90 .def_141))
(define-fun .def_143 () Bool (and .def_92 .def_142))
(define-fun .def_144 () Bool (and .def_94 .def_143))
(define-fun .def_145 () Bool (and .def_98 .def_144))
(define-fun .def_146 () Bool (and .def_100 .def_145))
(define-fun .def_147 () Bool (and .def_56 .def_146))
(define-fun .def_148 () Bool (and .def_58 .def_147))
(define-fun .def_149 () Bool (and .def_106 .def_148))
(define-fun .def_150 () Bool (and .def_108 .def_149))
(define-fun .def_151 () Bool (and .def_110 .def_150))
(define-fun .def_152 () Bool (and |.loc{10}| .def_151))
(define-fun .def_153 () Bool (and .def_113 .def_152))
(define-fun .def_154 () Bool (and .def_115 .def_153))
(define-fun .def_155 () Bool (and .def_117 .def_154))
(define-fun .def_156 () Bool (and .def_119 .def_155))
(define-fun .def_157 () Bool (and .def_124 .def_156))
(define-fun .def_462 () Bool (or .def_157 .def_461))
(define-fun .def_121 () Bool (<= |.x{1188}| |.x{460}|))
(define-fun .def_122 () Bool (or |.x{1146}| .def_121))
(define-fun .def_68 () Bool (and .def_66 .def_67))
(define-fun .def_81 () Bool (and .def_68 .def_80))
(define-fun .def_83 () Bool (and .def_81 .def_82))
(define-fun .def_85 () Bool (and .def_83 .def_84))
(define-fun .def_87 () Bool (and .def_85 .def_86))
(define-fun .def_89 () Bool (and .def_87 .def_88))
(define-fun .def_91 () Bool (and .def_89 .def_90))
(define-fun .def_93 () Bool (and .def_91 .def_92))
(define-fun .def_95 () Bool (and .def_93 .def_94))
(define-fun .def_97 () Bool (and .def_95 .def_96))
(define-fun .def_99 () Bool (and .def_97 .def_98))
(define-fun .def_101 () Bool (and .def_99 .def_100))
(define-fun .def_103 () Bool (and .def_101 .def_102))
(define-fun .def_104 () Bool (and .def_56 .def_103))
(define-fun .def_105 () Bool (and .def_58 .def_104))
(define-fun .def_107 () Bool (and .def_105 .def_106))
(define-fun .def_109 () Bool (and .def_107 .def_108))
(define-fun .def_111 () Bool (and .def_109 .def_110))
(define-fun .def_112 () Bool (and |.loc{10}| .def_111))
(define-fun .def_114 () Bool (and .def_112 .def_113))
(define-fun .def_116 () Bool (and .def_114 .def_115))
(define-fun .def_118 () Bool (and .def_116 .def_117))
(define-fun .def_120 () Bool (and .def_118 .def_119))
(define-fun .def_123 () Bool (and .def_120 .def_122))
(define-fun .def_125 () Bool (and .def_123 .def_124))
(define-fun .def_463 () Bool (or .def_125 .def_462))
(define-fun .def_475 () Bool (! (and .def_463 .def_474) :trans true))
(define-fun .def_489 () Bool (and .def_62 .def_486))
(define-fun .def_490 () Bool (and .def_54 .def_489))
(define-fun .def_491 () Bool (! (not .def_490) :invar-property 0))
(assert true)
